c WARNING: for repeatability, setting FPU to use double precision
d VARIABLES            222532       
d CONSTRAINTS          965885       
c ============================[ Problem Statistics ]=============================
c |                                                                             |
c |  Number of variables:        222532                                         |
c |  Number of clauses:          965885                                         |
c |  Parse time:                   0.15 s                                       |
c |                                                                             |
c ============================[ Search Statistics ]==============================
c | Conflicts |          ORIGINAL         |          LEARNT          | Progress |
c |           |    Vars  Clauses Literals |    Limit  Clauses Lit/Cl |          |
c ===============================================================================
c |       100 |  183067   863859  2095785 |   316748      100     22 | 17.735 % |
c |       250 |  183067   863859  2095785 |   348423      250     13 | 17.735 % |
c |       475 |  183067   863859  2095785 |   383265      475     42 | 17.735 % |
c |       812 |  183067   863859  2095785 |   421591      812     58 | 17.735 % |
c |      1318 |  183067   863859  2095785 |   463751     1318     85 | 17.735 % |
c |      2077 |  183067   863859  2095785 |   510126     2077     89 | 17.735 % |
c |      3216 |  183067   863859  2095785 |   561138     3216     97 | 17.735 % |
c |      4924 |  183067   863859  2095785 |   617252     4924     95 | 17.735 % |
c |      7486 |  183067   863859  2095785 |   678978     7486    116 | 17.735 % |
c |     11330 |  183067   863859  2095785 |   746875    11330    117 | 17.735 % |
c |     17096 |  183067   863859  2095785 |   821563    17096    143 | 17.735 % |
c |     25745 |  183067   863859  2095785 |   903719    25745    156 | 17.735 % |
c |     38719 |  183067   863859  2095785 |   994091    38719    185 | 17.735 % |
c |     58180 |  183052   863801  2095646 |  1093501    58150    188 | 17.741 % |
c ===============================================================================
c restarts              : 189
c conflicts             : 59933          (1574 /sec)
c decisions             : 381403         (0.00 % random) (10015 /sec)
c propagations          : 182244177      (4785525 /sec)
c conflict literals     : 11067551       (18.87 % deleted)
d RESTARTS             189
d FAILURES             59933        
d NODES                381403       
d BACKTRACKS           381403       
d PROPAGATIONS         182244177    
d NOGOODSIZE           184.67 
d MEMORY               146.00 
d TIME                 38.0824 

s UNSATISFIABLE
